
%FILE DATA:	Soccer Computational Problem for MiniZinc Models	%
%AUTHOR:	Jack Wall	%
%CONTACT:  	116397063@umail.ucc.ie			%
%LAST UPDATE:	03/19/2020, 13:39:23						%
%DESCRIPTION: 	165 games played with 45 games left				%


n=15; %number of teams

%Games to play
games=[|10,9|3,7|15,7|3,13|12,14|7,13|7,15|12,10|14,5|15,3|12,6|11,3|2,1|14,9|13,3|2,13|2,11|4,14|9,1|11,6|9,10|10,2|8,1|8,3|4,13|7,5|15,1|10,4|6,2|8,2|9,4|11,10|3,9|2,3|13,7|6,13|12,1|14,10|10,13|7,3|1,6|11,7|14,4|1,7|13,15|];

%Initial points
iPoints=[22,23,24,28,39,25,28,37,25,21,33,29,33,35,30];

%POSITION CONSTRAINTS
% [|teamID, operator, position|...]
% operators index:
%  1 for =  operator
%  2 for >  operator
%  3 for >= operator
%  4 for <  operator
%  5 for <= operator
positionConstraints=[|11,4,2|5,2,1|14,5,3|13,1,4|15,5,5|];